(set-logic QF_S)
(declare-fun var0 () String)
(assert (str.in.re var0 (re.++ (re.union (re.union (str.to.re "0") (str.to.re "111")) (re.union (str.to.re "222") (str.to.re "33"))) (re.++ (re.union (re.union (str.to.re "4") (str.to.re "555")) (re.union (str.to.re "6") (str.to.re "7"))) (re.++ (re.* (re.* (str.to.re "888"))) (re.++ (re.* (re.+ (str.to.re "9"))) (re.++ (re.* (re.* (str.to.re "aaa"))) (re.++ (re.union (re.union (str.to.re "b") (str.to.re "c")) (re.union (str.to.re "dd") (str.to.re "eee"))) (re.++ (re.+ (re.+ (str.to.re "fff"))) (re.++ (re.union (re.+ (str.to.re "ggg")) (re.+ (str.to.re "hh"))) (re.++ (re.+ (re.union (str.to.re "ii") (str.to.re "jj"))) (re.union (re.* (str.to.re "k")) (re.* (str.to.re "ll"))))))))))))))
(assert (<= 76 (str.len var0)))
(check-sat)